/*********************************************
 * OPL 12.5 Data
 * Author: Administrator
 * Creation Date: Jun 27, 2013 at 1:30:56 PM
 *********************************************/
s = 1;
t = 5;

existingArcs = {
<1,5,1000>
};

possibleArcs = {
<1,2,1>,
<2,3,1>,
<3,4,1>,
<4,5,1>,
<1,6,1>,
<2,7,3>,
<6,7,1>,
<7,5,50>,
};
